;;bench_1307 from sage
(set-logic QF_BV)
(set-info :source |
 Patrice Godefroid, SAGE (systematic dynamic test generation)
 For more information: http://research.microsoft.com/en-us/um/people/pg/public_psfiles/ndss2008.pdf
|)
(set-info :smt-lib-version 2.0)
(set-info :category "industrial")
(set-info :status sat)
(declare-fun T1_57 () (_ BitVec 8))
(declare-fun T1_56 () (_ BitVec 8))
(declare-fun T1_55 () (_ BitVec 8))
(declare-fun T1_42 () (_ BitVec 8))
(declare-fun T1_41 () (_ BitVec 8))
(declare-fun T1_40 () (_ BitVec 8))
(declare-fun T1_18 () (_ BitVec 8))
(declare-fun T1_17 () (_ BitVec 8))
(declare-fun T1_16 () (_ BitVec 8))
(declare-fun T1_15 () (_ BitVec 8))
(declare-fun T1_14 () (_ BitVec 8))
(declare-fun T1_13 () (_ BitVec 8))
(declare-fun T1_27 () (_ BitVec 8))
(declare-fun T1_26 () (_ BitVec 8))
(declare-fun T1_25 () (_ BitVec 8))
(declare-fun T1_78 () (_ BitVec 8))
(declare-fun T1_77 () (_ BitVec 8))
(declare-fun T1_76 () (_ BitVec 8))
(declare-fun T1_102 () (_ BitVec 8))
(declare-fun T1_101 () (_ BitVec 8))
(declare-fun T1_100 () (_ BitVec 8))
(declare-fun T1_96 () (_ BitVec 8))
(declare-fun T1_95 () (_ BitVec 8))
(declare-fun T1_94 () (_ BitVec 8))
(declare-fun T1_105 () (_ BitVec 8))
(declare-fun T1_104 () (_ BitVec 8))
(declare-fun T1_103 () (_ BitVec 8))
(declare-fun T1_60 () (_ BitVec 8))
(declare-fun T1_59 () (_ BitVec 8))
(declare-fun T1_58 () (_ BitVec 8))
(declare-fun T1_21 () (_ BitVec 8))
(declare-fun T1_20 () (_ BitVec 8))
(declare-fun T1_19 () (_ BitVec 8))
(declare-fun T1_72 () (_ BitVec 8))
(declare-fun T1_71 () (_ BitVec 8))
(declare-fun T1_70 () (_ BitVec 8))
(declare-fun T1_63 () (_ BitVec 8))
(declare-fun T1_62 () (_ BitVec 8))
(declare-fun T1_61 () (_ BitVec 8))
(declare-fun T1_36 () (_ BitVec 8))
(declare-fun T1_35 () (_ BitVec 8))
(declare-fun T1_34 () (_ BitVec 8))
(declare-fun T1_30 () (_ BitVec 8))
(declare-fun T1_29 () (_ BitVec 8))
(declare-fun T1_28 () (_ BitVec 8))
(declare-fun T1_99 () (_ BitVec 8))
(declare-fun T1_98 () (_ BitVec 8))
(declare-fun T1_97 () (_ BitVec 8))
(declare-fun T1_75 () (_ BitVec 8))
(declare-fun T1_74 () (_ BitVec 8))
(declare-fun T1_73 () (_ BitVec 8))
(declare-fun T1_24 () (_ BitVec 8))
(declare-fun T1_23 () (_ BitVec 8))
(declare-fun T1_22 () (_ BitVec 8))
(declare-fun T1_33 () (_ BitVec 8))
(declare-fun T1_32 () (_ BitVec 8))
(declare-fun T1_31 () (_ BitVec 8))
(declare-fun T1_45 () (_ BitVec 8))
(declare-fun T1_44 () (_ BitVec 8))
(declare-fun T1_43 () (_ BitVec 8))
(declare-fun T1_69 () (_ BitVec 8))
(declare-fun T1_68 () (_ BitVec 8))
(declare-fun T1_67 () (_ BitVec 8))
(declare-fun T4_40 () (_ BitVec 32))
(assert (let ((?v_0 ((_ zero_extend 24) (_ bv8 8)))) (let ((?v_1 (bvor (bvshl (bvor (bvshl (bvor ((_ zero_extend 24) T1_55) (_ bv4294967040 32)) ?v_0) ((_ zero_extend 24) T1_56)) ?v_0) ((_ zero_extend 24) T1_57)))) (let ((?v_65 (bvor (bvshl (bvadd ((_ zero_extend 24) ((_ extract 15 8) ?v_1)) (bvshl ((_ zero_extend 24) ((_ extract 7 0) ?v_1)) (_ bv8 32))) ?v_0) ((_ zero_extend 24) ((_ extract 23 16) ?v_1)))) (?v_10 ((_ zero_extend 24) T1_42)) (?v_9 ((_ zero_extend 24) T1_41)) (?v_8 ((_ zero_extend 24) T1_40))) (let ((?v_49 (bvor (bvshl (bvor (bvshl (bvor ?v_8 (_ bv4294967040 32)) ?v_0) ?v_9) ?v_0) ?v_10))) (let ((?v_64 (bvor (bvshl (bvadd ((_ zero_extend 24) ((_ extract 15 8) ?v_49)) (bvshl ((_ zero_extend 24) ((_ extract 7 0) ?v_49)) (_ bv8 32))) ?v_0) ((_ zero_extend 24) ((_ extract 23 16) ?v_49)))) (?v_51 (bvor (bvshl (bvor (bvshl (bvor ((_ zero_extend 24) T1_16) (_ bv4294967040 32)) ?v_0) ((_ zero_extend 24) T1_17)) ?v_0) ((_ zero_extend 24) T1_18)))) (let ((?v_62 (bvor (bvshl (bvadd ((_ zero_extend 24) ((_ extract 15 8) ?v_51)) (bvshl ((_ zero_extend 24) ((_ extract 7 0) ?v_51)) (_ bv8 32))) ?v_0) ((_ zero_extend 24) ((_ extract 23 16) ?v_51)))) (?v_23 (bvor (bvshl (bvor (bvshl (bvor ((_ zero_extend 24) T1_13) (_ bv4294967040 32)) ?v_0) ((_ zero_extend 24) T1_14)) ?v_0) ((_ zero_extend 24) T1_15)))) (let ((?v_61 (bvor (bvshl (bvadd ((_ zero_extend 24) ((_ extract 15 8) ?v_23)) (bvshl ((_ zero_extend 24) ((_ extract 7 0) ?v_23)) (_ bv8 32))) ?v_0) ((_ zero_extend 24) ((_ extract 23 16) ?v_23)))) (?v_47 (bvor (bvshl (bvor (bvshl (bvor ((_ zero_extend 24) T1_25) (_ bv4294967040 32)) ?v_0) ((_ zero_extend 24) T1_26)) ?v_0) ((_ zero_extend 24) T1_27)))) (let ((?v_60 (bvor (bvshl (bvadd ((_ zero_extend 24) ((_ extract 15 8) ?v_47)) (bvshl ((_ zero_extend 24) ((_ extract 7 0) ?v_47)) (_ bv8 32))) ?v_0) ((_ zero_extend 24) ((_ extract 23 16) ?v_47)))) (?v_45 (bvor (bvshl (bvor (bvshl (bvor ((_ zero_extend 24) T1_76) (_ bv4294967040 32)) ?v_0) ((_ zero_extend 24) T1_77)) ?v_0) ((_ zero_extend 24) T1_78)))) (let ((?v_59 (bvor (bvshl (bvadd ((_ zero_extend 24) ((_ extract 15 8) ?v_45)) (bvshl ((_ zero_extend 24) ((_ extract 7 0) ?v_45)) (_ bv8 32))) ?v_0) ((_ zero_extend 24) ((_ extract 23 16) ?v_45)))) (?v_43 (bvor (bvshl (bvor (bvshl (bvor ((_ zero_extend 24) T1_100) (_ bv4294967040 32)) ?v_0) ((_ zero_extend 24) T1_101)) ?v_0) ((_ zero_extend 24) T1_102)))) (let ((?v_57 (bvor (bvshl (bvadd ((_ zero_extend 24) ((_ extract 15 8) ?v_43)) (bvshl ((_ zero_extend 24) ((_ extract 7 0) ?v_43)) (_ bv8 32))) ?v_0) ((_ zero_extend 24) ((_ extract 23 16) ?v_43)))) (?v_40 (bvor (bvshl (bvor (bvshl (bvor ((_ zero_extend 24) T1_94) (_ bv4294967040 32)) ?v_0) ((_ zero_extend 24) T1_95)) ?v_0) ((_ zero_extend 24) T1_96)))) (let ((?v_56 (bvor (bvshl (bvadd ((_ zero_extend 24) ((_ extract 15 8) ?v_40)) (bvshl ((_ zero_extend 24) ((_ extract 7 0) ?v_40)) (_ bv8 32))) ?v_0) ((_ zero_extend 24) ((_ extract 23 16) ?v_40)))) (?v_38 (bvor (bvshl (bvor (bvshl (bvor ((_ zero_extend 24) T1_103) (_ bv4294967040 32)) ?v_0) ((_ zero_extend 24) T1_104)) ?v_0) ((_ zero_extend 24) T1_105)))) (let ((?v_54 (bvor (bvshl (bvadd ((_ zero_extend 24) ((_ extract 15 8) ?v_38)) (bvshl ((_ zero_extend 24) ((_ extract 7 0) ?v_38)) (_ bv8 32))) ?v_0) ((_ zero_extend 24) ((_ extract 23 16) ?v_38)))) (?v_24 ((_ zero_extend 24) ((_ extract 31 24) ?v_23))) (?v_63 ((_ zero_extend 24) ((_ extract 31 24) ?v_1))) (?v_20 (bvor (bvshl (bvor (bvshl (bvor ((_ zero_extend 24) T1_58) (_ bv4294967040 32)) ?v_0) ((_ zero_extend 24) T1_59)) ?v_0) ((_ zero_extend 24) T1_60)))) (let ((?v_21 (bvor (bvshl (bvadd ((_ zero_extend 24) ((_ extract 15 8) ?v_20)) (bvshl ((_ zero_extend 24) ((_ extract 7 0) ?v_20)) (_ bv8 32))) ?v_0) ((_ zero_extend 24) ((_ extract 23 16) ?v_20)))) (?v_15 (bvor (bvshl (bvor (bvshl (bvor ((_ zero_extend 24) T1_19) (_ bv4294967040 32)) ?v_0) ((_ zero_extend 24) T1_20)) ?v_0) ((_ zero_extend 24) T1_21)))) (let ((?v_18 (bvor (bvshl (bvadd ((_ zero_extend 24) ((_ extract 15 8) ?v_15)) (bvshl ((_ zero_extend 24) ((_ extract 7 0) ?v_15)) (_ bv8 32))) ?v_0) ((_ zero_extend 24) ((_ extract 23 16) ?v_15)))) (?v_13 (bvor (bvshl (bvor (bvshl (bvor ((_ zero_extend 24) T1_70) (_ bv4294967040 32)) ?v_0) ((_ zero_extend 24) T1_71)) ?v_0) ((_ zero_extend 24) T1_72)))) (let ((?v_22 (bvor (bvshl (bvadd ((_ zero_extend 24) ((_ extract 15 8) ?v_13)) (bvshl ((_ zero_extend 24) ((_ extract 7 0) ?v_13)) (_ bv8 32))) ?v_0) ((_ zero_extend 24) ((_ extract 23 16) ?v_13)))) (?v_14 (bvor (bvshl (bvor (bvshl (bvor ((_ zero_extend 24) T1_61) (_ bv4294967040 32)) ?v_0) ((_ zero_extend 24) T1_62)) ?v_0) ((_ zero_extend 24) T1_63)))) (let ((?v_19 (bvor (bvshl (bvadd ((_ zero_extend 24) ((_ extract 15 8) ?v_14)) (bvshl ((_ zero_extend 24) ((_ extract 7 0) ?v_14)) (_ bv8 32))) ?v_0) ((_ zero_extend 24) ((_ extract 23 16) ?v_14)))) (?v_30 (bvor (bvshl (bvor (bvshl (bvor ((_ zero_extend 24) T1_34) (_ bv4294967040 32)) ?v_0) ((_ zero_extend 24) T1_35)) ?v_0) ((_ zero_extend 24) T1_36)))) (let ((?v_58 (bvor (bvshl (bvadd ((_ zero_extend 24) ((_ extract 15 8) ?v_30)) (bvshl ((_ zero_extend 24) ((_ extract 7 0) ?v_30)) (_ bv8 32))) ?v_0) ((_ zero_extend 24) ((_ extract 23 16) ?v_30)))) (?v_11 (bvor (bvshl (bvor (bvshl (bvor ((_ zero_extend 24) T1_28) (_ bv4294967040 32)) ?v_0) ((_ zero_extend 24) T1_29)) ?v_0) ((_ zero_extend 24) T1_30)))) (let ((?v_12 (bvor (bvshl (bvadd ((_ zero_extend 24) ((_ extract 15 8) ?v_11)) (bvshl ((_ zero_extend 24) ((_ extract 7 0) ?v_11)) (_ bv8 32))) ?v_0) ((_ zero_extend 24) ((_ extract 23 16) ?v_11)))) (?v_33 (bvor (bvshl (bvor (bvshl (bvor ((_ zero_extend 24) T1_97) (_ bv4294967040 32)) ?v_0) ((_ zero_extend 24) T1_98)) ?v_0) ((_ zero_extend 24) T1_99)))) (let ((?v_55 (bvor (bvshl (bvadd ((_ zero_extend 24) ((_ extract 15 8) ?v_33)) (bvshl ((_ zero_extend 24) ((_ extract 7 0) ?v_33)) (_ bv8 32))) ?v_0) ((_ zero_extend 24) ((_ extract 23 16) ?v_33)))) (?v_2 (bvor (bvshl (bvor (bvshl (bvor ((_ zero_extend 24) T1_73) (_ bv4294967040 32)) ?v_0) ((_ zero_extend 24) T1_74)) ?v_0) ((_ zero_extend 24) T1_75)))) (let ((?v_53 ((_ zero_extend 24) ((_ extract 31 24) ?v_2))) (?v_52 ((_ zero_extend 24) ((_ extract 31 24) ?v_51))) (?v_50 ((_ zero_extend 24) ((_ extract 31 24) ?v_49))) (?v_48 ((_ zero_extend 24) ((_ extract 31 24) ?v_47))) (?v_46 ((_ zero_extend 24) ((_ extract 31 24) ?v_45))) (?v_44 ((_ zero_extend 24) ((_ extract 31 24) ?v_43))) (?v_42 ((_ zero_extend 24) ((_ extract 31 24) ?v_20))) (?v_41 ((_ zero_extend 24) ((_ extract 31 24) ?v_40))) (?v_39 ((_ zero_extend 24) ((_ extract 31 24) ?v_38))) (?v_37 ((_ zero_extend 24) ((_ extract 31 24) ?v_13))) (?v_36 ((_ zero_extend 24) ((_ extract 31 24) ?v_15))) (?v_35 ((_ zero_extend 24) ((_ extract 31 24) ?v_14))) (?v_34 ((_ zero_extend 24) ((_ extract 31 24) ?v_33))) (?v_16 (bvor (bvshl (bvor (bvshl (bvor ((_ zero_extend 24) T1_22) (_ bv4294967040 32)) ?v_0) ((_ zero_extend 24) T1_23)) ?v_0) ((_ zero_extend 24) T1_24)))) (let ((?v_32 ((_ zero_extend 24) ((_ extract 31 24) ?v_16))) (?v_31 ((_ zero_extend 24) ((_ extract 31 24) ?v_30))) (?v_29 ((_ zero_extend 24) ((_ extract 31 24) ?v_11))) (?v_4 (bvor (bvshl (bvor (bvshl (bvor ((_ zero_extend 24) T1_31) (_ bv4294967040 32)) ?v_0) ((_ zero_extend 24) T1_32)) ?v_0) ((_ zero_extend 24) T1_33)))) (let ((?v_28 ((_ zero_extend 24) ((_ extract 31 24) ?v_4))) (?v_3 ((_ zero_extend 24) T1_43))) (let ((?v_5 (bvor (bvshl (bvor (bvshl (bvor ?v_3 (_ bv4294967040 32)) ?v_0) ((_ zero_extend 24) T1_44)) ?v_0) ((_ zero_extend 24) T1_45)))) (let ((?v_27 ((_ zero_extend 24) ((_ extract 31 24) ?v_5))) (?v_25 (bvor (bvshl (bvor (bvshl (bvor ((_ zero_extend 24) T1_67) (_ bv4294967040 32)) ?v_0) ((_ zero_extend 24) T1_68)) ?v_0) ((_ zero_extend 24) T1_69)))) (let ((?v_26 ((_ zero_extend 24) ((_ extract 31 24) ?v_25))) (?v_17 (bvor (bvshl (bvadd ((_ zero_extend 24) ((_ extract 15 8) ?v_16)) (bvshl ((_ zero_extend 24) ((_ extract 7 0) ?v_16)) (_ bv8 32))) ?v_0) ((_ zero_extend 24) ((_ extract 23 16) ?v_16)))) (?v_7 (bvor (bvshl (bvadd ((_ zero_extend 24) ((_ extract 15 8) ?v_4)) (bvshl ((_ zero_extend 24) ((_ extract 7 0) ?v_4)) (_ bv8 32))) ?v_0) ((_ zero_extend 24) ((_ extract 23 16) ?v_4)))) (?v_6 (bvor (bvshl (bvadd ((_ zero_extend 24) ((_ extract 15 8) ?v_5)) (bvshl ((_ zero_extend 24) ((_ extract 7 0) ?v_5)) (_ bv8 32))) ?v_0) ((_ zero_extend 24) ((_ extract 23 16) ?v_5))))) (and true (= T4_40 (bvor (bvshl (bvor (bvshl (bvor (bvshl ?v_3 (_ bv8 32)) ?v_10) (_ bv8 32)) ?v_9) (_ bv8 32)) ?v_8)) (bvult ?v_65 (bvor (bvshl (bvadd ((_ zero_extend 24) ((_ extract 15 8) ?v_2)) (bvshl ((_ zero_extend 24) ((_ extract 7 0) ?v_2)) (_ bv8 32))) ?v_0) ((_ zero_extend 24) ((_ extract 23 16) ?v_2)))) (= (bvand ?v_25 (_ bv4278190080 32)) (_ bv4278190080 32)) (= (bvand ?v_5 (_ bv4278190080 32)) (_ bv4278190080 32)) (= (bvand ?v_4 (_ bv4278190080 32)) (_ bv4278190080 32)) (= (bvand ?v_11 (_ bv4278190080 32)) (_ bv4278190080 32)) (= (bvand ?v_30 (_ bv4278190080 32)) (_ bv4278190080 32)) (= (bvand ?v_16 (_ bv4278190080 32)) (_ bv4278190080 32)) (= (bvand ?v_33 (_ bv4278190080 32)) (_ bv4278190080 32)) (= (bvand ?v_14 (_ bv4278190080 32)) (_ bv4278190080 32)) (= (bvand ?v_15 (_ bv4278190080 32)) (_ bv4278190080 32)) (= (bvand ?v_13 (_ bv4278190080 32)) (_ bv4278190080 32)) (= (bvand ?v_20 (_ bv4278190080 32)) (_ bv4278190080 32)) (= (bvand ?v_38 (_ bv4278190080 32)) (_ bv4278190080 32)) (= (bvand ?v_40 (_ bv4278190080 32)) (_ bv4278190080 32)) (= (bvand ?v_43 (_ bv4278190080 32)) (_ bv4278190080 32)) (= (bvand ?v_45 (_ bv4278190080 32)) (_ bv4278190080 32)) (= (bvand ?v_47 (_ bv4278190080 32)) (_ bv4278190080 32)) (= (bvand ?v_51 (_ bv4278190080 32)) (_ bv4278190080 32)) (= (bvand ?v_23 (_ bv4278190080 32)) (_ bv4278190080 32)) (not (= ?v_7 ?v_6)) (bvule ?v_6 ?v_7) (= (bvand ?v_49 (_ bv4278190080 32)) (_ bv4278190080 32)) (not (= T4_40 (_ bv1179469088 32))) (= (bvand ?v_2 (_ bv4278190080 32)) (_ bv4278190080 32)) (not (= ?v_12 ?v_7)) (bvule ?v_7 ?v_12) (bvule ?v_22 ?v_19) (not (= ?v_18 ?v_17)) (bvule ?v_17 ?v_18) (bvult ?v_19 ?v_18) (not (= ?v_21 ?v_19)) (bvule ?v_19 ?v_21) (bvult ?v_19 ?v_21) (not (= ?v_21 ?v_22)) (bvule ?v_22 ?v_21) (bvult ?v_22 ?v_21) (bvsle (_ bv252 32) ?v_24) (bvslt (_ bv3 32) ?v_24) (bvsle ?v_26 ?v_24) (bvsle ?v_24 ?v_26) (bvsle ?v_27 ?v_24) (bvsle ?v_24 ?v_27) (bvsle ?v_28 ?v_24) (bvsle ?v_24 ?v_28) (bvsle ?v_29 ?v_24) (bvsle ?v_24 ?v_29) (bvsle ?v_31 ?v_24) (bvsle ?v_24 ?v_31) (bvsle ?v_32 ?v_24) (bvsle ?v_24 ?v_32) (bvsle ?v_34 ?v_24) (bvsle ?v_24 ?v_34) (bvsle ?v_35 ?v_24) (bvsle ?v_24 ?v_35) (bvsle ?v_36 ?v_24) (bvsle ?v_24 ?v_36) (bvsle ?v_37 ?v_24) (bvsle ?v_24 ?v_37) (bvsle ?v_39 ?v_24) (bvsle ?v_24 ?v_39) (bvsle ?v_41 ?v_24) (bvsle ?v_24 ?v_41) (bvsle ?v_42 ?v_24) (bvsle ?v_24 ?v_42) (bvsle ?v_44 ?v_24) (bvsle ?v_24 ?v_44) (bvsle ?v_46 ?v_24) (bvsle ?v_24 ?v_46) (bvsle ?v_48 ?v_24) (bvsle ?v_24 ?v_48) (bvsle ?v_50 ?v_24) (bvsle ?v_24 ?v_50) (bvsle ?v_52 ?v_24) (bvsle ?v_24 ?v_52) (= (bvand ?v_1 (_ bv4278190080 32)) (_ bv4278190080 32)) (bvsle ?v_53 ?v_24) (bvsle ?v_24 ?v_53) (bvult ?v_54 ?v_22) (= (_ bv0 32) ?v_54) (= ?v_54 (_ bv0 32)) (not (= ?v_56 ?v_55)) (bvule ?v_55 ?v_56) (not (= ?v_57 ?v_12)) (bvule ?v_12 ?v_57) (not (= ?v_57 ?v_58)) (bvule ?v_58 ?v_57) (bvult ?v_54 ?v_57) (bvule ?v_57 ?v_56) (bvult ?v_59 ?v_22) (bvule ?v_59 ?v_18) (bvule ?v_59 ?v_22) (bvult ?v_54 ?v_59) (not (= ?v_59 ?v_56)) (bvule ?v_56 ?v_59) (bvult ?v_56 ?v_59) (not (= ?v_56 ?v_59)) (bvule ?v_59 ?v_21) (not (= ?v_21 ?v_59)) (not (= ?v_59 ?v_57)) (bvule ?v_57 ?v_59) (bvult ?v_57 ?v_59) (not (= ?v_57 ?v_59)) (bvule ?v_22 ?v_60) (bvult ?v_19 ?v_60) (bvule ?v_60 ?v_18) (bvult ?v_22 ?v_60) (not (= ?v_60 ?v_21)) (bvule ?v_21 ?v_60) (bvult ?v_21 ?v_60) (not (= ?v_21 ?v_60)) (not (= ?v_60 ?v_59)) (bvule ?v_59 ?v_60) (bvult ?v_59 ?v_60) (not (= ?v_59 ?v_60)) (bvule ?v_60 ?v_61) (not (= ?v_61 ?v_60)) (bvule ?v_59 ?v_61) (not (= ?v_61 ?v_59)) (= (_ bv16777215 32) ?v_61) (bvule ?v_61 (_ bv16777215 32)) (bvule (_ bv0 32) ?v_61) (not (= ?v_61 (_ bv0 32))) (bvule ?v_22 ?v_62) (not (= ?v_62 ?v_18)) (bvule ?v_18 ?v_62) (bvult ?v_18 ?v_62) (bvule ?v_59 ?v_62) (not (= ?v_62 ?v_59)) (bvult ?v_21 ?v_62) (not (= ?v_21 ?v_62)) (not (= ?v_62 ?v_60)) (bvule ?v_60 ?v_62) (bvult ?v_60 ?v_62) (not (= ?v_60 ?v_62)) (bvule ?v_62 ?v_61) (not (= ?v_61 ?v_62)) (not (= (_ bv16777215 32) ?v_62)) (bvule ?v_62 (_ bv16777215 32)) (bvule (_ bv0 32) ?v_62) (not (= ?v_62 (_ bv0 32))) (bvsle ?v_63 ?v_24) (bvsle ?v_24 ?v_63) (bvult ?v_64 ?v_57) (bvult ?v_54 ?v_64) (bvule ?v_64 ?v_56) (bvult ?v_64 ?v_59) (not (= ?v_64 ?v_59)) (bvule ?v_64 ?v_57) (not (= ?v_57 ?v_64)) (bvule ?v_64 ?v_59) (not (= ?v_59 ?v_64)) (bvule ?v_64 ?v_60) (not (= ?v_60 ?v_64)) (bvule ?v_64 ?v_61) (not (= ?v_61 ?v_64)) (not (= ?v_62 ?v_64)) (bvule ?v_64 ?v_62) (bvule (_ bv0 32) ?v_64) (not (= ?v_64 (_ bv0 32))) (bvult ?v_64 ?v_62) (not (= ?v_64 ?v_62)) (not (= ?v_64 ?v_65)) (bvule ?v_65 ?v_64))))))))))))))))))))))))))))
(check-sat)
(exit)
